c CNF file corresponding to a (partial) station packing problem.
p cnf 6935 184
1 2 3 4 5 6 7 8 9 10 11 12 13 14 0
-1 -2 0
-1 -3 0
-1 -4 0
-1 -5 0
-1 -6 0
-1 -7 0
-1 -8 0
-1 -9 0
-1 -10 0
-1 -11 0
-1 -12 0
-1 -13 0
-1 -14 0
-2 -3 0
-2 -4 0
-2 -5 0
-2 -6 0
-2 -7 0
-2 -8 0
-2 -9 0
-2 -10 0
-2 -11 0
-2 -12 0
-2 -13 0
-2 -14 0
-3 -4 0
-3 -5 0
-3 -6 0
-3 -7 0
-3 -8 0
-3 -9 0
-3 -10 0
-3 -11 0
-3 -12 0
-3 -13 0
-3 -14 0
-4 -5 0
-4 -6 0
-4 -7 0
-4 -8 0
-4 -9 0
-4 -10 0
-4 -11 0
-4 -12 0
-4 -13 0
-4 -14 0
-5 -6 0
-5 -7 0
-5 -8 0
-5 -9 0
-5 -10 0
-5 -11 0
-5 -12 0
-5 -13 0
-5 -14 0
-6 -7 0
-6 -8 0
-6 -9 0
-6 -10 0
-6 -11 0
-6 -12 0
-6 -13 0
-6 -14 0
-7 -8 0
-7 -9 0
-7 -10 0
-7 -11 0
-7 -12 0
-7 -13 0
-7 -14 0
-8 -9 0
-8 -10 0
-8 -11 0
-8 -12 0
-8 -13 0
-8 -14 0
-9 -10 0
-9 -11 0
-9 -12 0
-9 -13 0
-9 -14 0
-10 -11 0
-10 -12 0
-10 -13 0
-10 -14 0
-11 -12 0
-11 -13 0
-11 -14 0
-12 -13 0
-12 -14 0
-13 -14 0
6922 6923 6924 6925 6926 6927 6928 6929 6930 6931 6932 6933 6934 6935 0
-6922 -6923 0
-6922 -6924 0
-6922 -6925 0
-6922 -6926 0
-6922 -6927 0
-6922 -6928 0
-6922 -6929 0
-6922 -6930 0
-6922 -6931 0
-6922 -6932 0
-6922 -6933 0
-6922 -6934 0
-6922 -6935 0
-6923 -6924 0
-6923 -6925 0
-6923 -6926 0
-6923 -6927 0
-6923 -6928 0
-6923 -6929 0
-6923 -6930 0
-6923 -6931 0
-6923 -6932 0
-6923 -6933 0
-6923 -6934 0
-6923 -6935 0
-6924 -6925 0
-6924 -6926 0
-6924 -6927 0
-6924 -6928 0
-6924 -6929 0
-6924 -6930 0
-6924 -6931 0
-6924 -6932 0
-6924 -6933 0
-6924 -6934 0
-6924 -6935 0
-6925 -6926 0
-6925 -6927 0
-6925 -6928 0
-6925 -6929 0
-6925 -6930 0
-6925 -6931 0
-6925 -6932 0
-6925 -6933 0
-6925 -6934 0
-6925 -6935 0
-6926 -6927 0
-6926 -6928 0
-6926 -6929 0
-6926 -6930 0
-6926 -6931 0
-6926 -6932 0
-6926 -6933 0
-6926 -6934 0
-6926 -6935 0
-6927 -6928 0
-6927 -6929 0
-6927 -6930 0
-6927 -6931 0
-6927 -6932 0
-6927 -6933 0
-6927 -6934 0
-6927 -6935 0
-6928 -6929 0
-6928 -6930 0
-6928 -6931 0
-6928 -6932 0
-6928 -6933 0
-6928 -6934 0
-6928 -6935 0
-6929 -6930 0
-6929 -6931 0
-6929 -6932 0
-6929 -6933 0
-6929 -6934 0
-6929 -6935 0
-6930 -6931 0
-6930 -6932 0
-6930 -6933 0
-6930 -6934 0
-6930 -6935 0
-6931 -6932 0
-6931 -6933 0
-6931 -6934 0
-6931 -6935 0
-6932 -6933 0
-6932 -6934 0
-6932 -6935 0
-6933 -6934 0
-6933 -6935 0
-6934 -6935 0
